NAME : cgl_70.9235.tour
COMMENT : Length = 9235
COMMENT : Found by LKH-3 [Keld Helsgaun] Thu Jun 26 21:26:49 2025
TYPE : TOUR
DIMENSION : 71
TOUR_SECTION
52
53
70
61
62
63
64
65
66
69
67
68
60
56
54
55
58
59
57
5
6
2
3
4
1
71
47
48
46
45
44
38
37
39
43
40
41
42
27
26
28
22
21
20
19
18
13
15
14
16
17
12
11
10
9
7
8
23
25
24
29
33
34
32
35
31
30
36
50
49
51
-1
EOF
